
Gurobi 13.0.1 (win64, gurobi_cl) logging started Tue Mar 17 14:44:46 2026

Set parameter Username
Set parameter LicenseID to value 2793250
Set parameter LogFile to value "gurobi.log"
Using license file C:\Users\alasd\gurobi.lic
Academic license - for non-commercial use only - expires 2027-03-16

Gurobi 13.0.1 (win64, gurobi_cl) logging started Tue Mar 17 17:25:55 2026

Set parameter Username
Set parameter LicenseID to value 2793250
Set parameter LogFile to value "gurobi.log"
Using license file C:\Users\alasd\gurobi.lic
Academic license - for non-commercial use only - expires 2027-03-16

Gurobi 13.0.1 (win64, gurobi_cl) logging started Tue Mar 17 17:28:25 2026

Set parameter Username
Set parameter LicenseID to value 2793250
Set parameter LogFile to value "gurobi.log"
Using license file C:\Users\alasd\gurobi.lic
Academic license - for non-commercial use only - expires 2027-03-16

Gurobi 13.0.1 (win64, gurobi_cl) logging started Tue Mar 17 17:50:08 2026

Set parameter Username
Set parameter LicenseID to value 2793250
Set parameter LogFile to value "gurobi.log"
Using license file C:\Users\alasd\gurobi.lic
Academic license - for non-commercial use only - expires 2027-03-16

Gurobi 13.0.1 (win64, gurobi_cl) logging started Tue Mar 17 17:54:27 2026

Set parameter Username
Set parameter LicenseID to value 2793250
Set parameter LogFile to value "gurobi.log"
Using license file C:\Users\alasd\gurobi.lic
Academic license - for non-commercial use only - expires 2027-03-16

Gurobi 13.0.1 (win64, gurobi_cl) logging started Thu Mar 19 11:58:25 2026

Set parameter Username
Set parameter LicenseID to value 2793250
Set parameter LogFile to value "gurobi.log"
Using license file C:\Users\alasd\gurobi.lic
Academic license - for non-commercial use only - expires 2027-03-16

Gurobi 13.0.1 (win64, gurobi_cl) logging started Thu Mar 19 18:15:12 2026

Set parameter Username
Set parameter LicenseID to value 2793250
Set parameter LogFile to value "gurobi.log"
Using license file C:\Users\alasd\gurobi.lic
Academic license - for non-commercial use only - expires 2027-03-16

Gurobi 13.0.1 (win64, gurobi_cl) logging started Thu Mar 19 19:04:13 2026

Set parameter Username
Set parameter LicenseID to value 2793250
Set parameter LogFile to value "gurobi.log"
Using license file C:\Users\alasd\gurobi.lic
Academic license - for non-commercial use only - expires 2027-03-16

Gurobi 13.0.1 (win64, gurobi_cl) logging started Thu Mar 19 19:29:50 2026

Set parameter Username
Set parameter LicenseID to value 2793250
Set parameter LogFile to value "gurobi.log"
Using license file C:\Users\alasd\gurobi.lic
Academic license - for non-commercial use only - expires 2027-03-16

Gurobi 13.0.1 (win64, gurobi_cl) logging started Fri Mar 20 18:16:31 2026

Set parameter Username
Set parameter LicenseID to value 2793250
Set parameter LogFile to value "gurobi.log"
Using license file C:\Users\alasd\gurobi.lic
Academic license - for non-commercial use only - expires 2027-03-16

Gurobi 13.0.1 (win64, gurobi_cl) logging started Mon Mar 23 14:48:11 2026

Set parameter Username
Set parameter LicenseID to value 2793250
Set parameter LogFile to value "gurobi.log"
Using license file C:\Users\alasd\gurobi.lic
Academic license - for non-commercial use only - expires 2027-03-16

Gurobi 13.0.1 (win64, gurobi_cl) logging started Tue Mar 24 21:16:15 2026

Set parameter Username
Set parameter LicenseID to value 2793250
Set parameter LogFile to value "gurobi.log"
Using license file C:\Users\alasd\gurobi.lic
Academic license - for non-commercial use only - expires 2027-03-16
